Given the df:

df = pd.DataFrame(
  {
    'col1': [1, 1, 1, 1, 2],
    'col2': [2, 3, 4, 5, 9]
   }
)

What would the output look like if we do this:

df.groupby('col1').size()

# Option A
col1
1   4
2   1
dtype: int64

# Option B
col1
1   2
2   4
dtype: int64

#Option C
1   1
2   1
dtype: int64

# The output would look like
# Option ???

> A
